\ Model Modelo 1
\ LP format - for model browsing. Use MPS format to capture full model detail.
Minimize
  10000 Pg[2] + 10000 Pg[3] + 15000 Pg[4] + 15000 Pg[5] + 8000 Pg[6]
   + 200 Constant
Subject To
 Balance: Pg[0] + Pg[1] + Pg[2] + Pg[3] + Pg[4] + Pg[5] + Pg[6] + 25 Psg[0]
   = 7.608899912834167
 Pmin_gen[0]: Pg[0] >= 0
 Pmin_gen[1]: Pg[1] >= 0
 Pmin_gen[2]: Pg[2] >= 1
 Pmin_gen[3]: Pg[3] >= 1
 Pmin_gen[4]: Pg[4] >= 1
 Pmin_gen[5]: Pg[5] >= 1
 Pmin_gen[6]: Pg[6] >= 1
 Pmax_gen[0]: - Pg[0] >= 0
 Pmax_gen[1]: - Pg[1] >= 0
 Pmax_gen[2]: - Pg[2] >= -5
 Pmax_gen[3]: - Pg[3] >= -5
 Pmax_gen[4]: - Pg[4] >= -4.92
 Pmax_gen[5]: - Pg[5] >= -4.92
 Pmax_gen[6]: - Pg[6] >= -4.92
 Pmin_genstat[0]: Psg[0] >= 0
 Pmin_genstat[0]: - Psg[0] >= -0.02
 f[0]: - 0.2007 Pg[0] - 0.0324 Pg[1] + 0.0043 Pg[2] + 0.0043 Pg[3]
   + 0.015 Pg[4] + 0.015 Pg[5] - 0.305 Psg[0] - flujo[0]
   = 0.0599235611448288
 f[1]: 0.2025 Pg[0] + 0.0332 Pg[1] - 0.0044 Pg[2] - 0.0044 Pg[3]
   - 0.0153 Pg[4] - 0.0153 Pg[5] + 0.3125 Psg[0] - flujo[1]
   = 0.0982023117465973
 f[2]: 0.1279 Pg[0] + 0.0216 Pg[1] - 0.0027 Pg[2] - 0.0027 Pg[3]
   - 0.0096 Pg[4] - 0.0096 Pg[5] + 14.6875 Psg[0] - flujo[2]
   = 0.1145595070581436
 f[3]: 0.3369 Pg[0] + 0.3625 Pg[1] + 0.4318 Pg[2] + 0.4318 Pg[3]
   + 0.3938 Pg[4] + 0.3938 Pg[5] + 7.945 Psg[0] - flujo[3]
   = 2.504733596880436
 f[4]: 0.3369 Pg[0] + 0.3625 Pg[1] + 0.4318 Pg[2] + 0.4318 Pg[3]
   + 0.3938 Pg[4] + 0.3938 Pg[5] + 7.945 Psg[0] - flujo[4]
   = 2.504733596880436
 f[5]: 0.4446 Pg[0] + 0.3954 Pg[1] + 0.1861 Pg[2] + 0.1861 Pg[3]
   + 0.2883 Pg[4] + 0.2883 Pg[5] + 9.8875 Psg[0] - flujo[5]
   = 1.931874461493015
 f[6]: 0.2003 Pg[0] + 0.0328 Pg[1] - 0.0043 Pg[2] - 0.0043 Pg[3]
   - 0.0151 Pg[4] - 0.0151 Pg[5] + 0.31 Psg[0] - flujo[6]
   = -0.0106287501807213
 f[7]: - 0.0284 Pg[0] - 0.0046 Pg[1] + 0.0006 Pg[2] + 0.0006 Pg[3]
   + 0.0022 Pg[4] + 0.0022 Pg[5] + 1.965 Psg[0] - flujo[7]
   = 0.0135034391231537
 f[8]: - 0.1247 Pg[0] - 0.0203 Pg[1] + 0.0028 Pg[2] + 0.0028 Pg[3]
   + 0.0096 Pg[4] + 0.0096 Pg[5] + 8.6225 Psg[0] - flujo[8]
   = 0.030258319275856
 f[9]: 0.1406 Pg[0] + 0.1841 Pg[1] - 0.0323 Pg[2] - 0.0323 Pg[3]
   + 0.5875 Pg[4] + 0.5875 Pg[5] + 3.59 Psg[0] - flujo[9]
   = 1.422706909908771
 f[10]: 0.2438 Pg[0] + 0.3227 Pg[1] - 0.0595 Pg[2] - 0.0595 Pg[3]
   + 0.116 Pg[4] + 0.116 Pg[5] + 6.3625 Psg[0] - flujo[10]
   = 0.7596899255762101
 f[11]: 0.2567 Pg[0] + 0.1834 Pg[1] - 0.0846 Pg[2] - 0.0846 Pg[3]
   + 0.0467 Pg[4] + 0.0467 Pg[5] + 5.18 Psg[0] - flujo[11]
   = 0.4172159414424896
 f[12]: 0.1371 Pg[0] + 0.1795 Pg[1] - 0.0317 Pg[2] - 0.0317 Pg[3]
   - 0.4256 Pg[4] - 0.4256 Pg[5] + 3.5025 Psg[0] - flujo[12]
   = -0.4964340980834961
 f[13]: 0.0256 Pg[0] - 0.5808 Pg[1] - 0.0809 Pg[2] - 0.0809 Pg[3]
   - 0.2806 Pg[4] - 0.2806 Pg[5] - 5.595 Psg[0] - flujo[13]
   = -1.398193915625572
 f[14]: - 0.0287 Pg[0] - 0.0046 Pg[1] + 0.0006 Pg[2] + 0.0006 Pg[3]
   + 0.0022 Pg[4] + 0.0022 Pg[5] + 1.9875 Psg[0] - flujo[14]
   = 0.1003580187239647
 f[15]: - 0.0963 Pg[0] - 0.0156 Pg[1] + 0.0021 Pg[2] + 0.0021 Pg[3]
   + 0.0074 Pg[4] + 0.0074 Pg[5] + 6.6625 Psg[0] - flujo[15]
   = 0.2072596963133812
 fmax+[0]: - flujo[0] >= -0.857365
 fmax+[1]: - flujo[1] >= -0.857365
 fmax+[2]: - flujo[2] >= -0.857365
 fmax+[3]: - flujo[3] >= -2.324412
 fmax+[4]: - flujo[4] >= -2.324412
 fmax+[5]: - flujo[5] >= -2.324412
 fmax+[6]: - flujo[6] >= -0.857365
 fmax+[7]: - flujo[7] >= -0.857365
 fmax+[8]: - flujo[8] >= -0.857365
 fmax+[9]: - flujo[9] >= -2.324412
 fmax+[10]: - flujo[10] >= -2.324412
 fmax+[11]: - flujo[11] >= -2.324412
 fmax+[12]: - flujo[12] >= -2.324412
 fmax+[13]: - flujo[13] >= -2.324412
 fmax+[14]: - flujo[14] >= -0.857365
 fmax+[15]: - flujo[15] >= -0.857365
 fmax-[0]: flujo[0] >= -0.857365
 fmax-[1]: flujo[1] >= -0.857365
 fmax-[2]: flujo[2] >= -0.857365
 fmax-[3]: flujo[3] >= -2.324412
 fmax-[4]: flujo[4] >= -2.324412
 fmax-[5]: flujo[5] >= -2.324412
 fmax-[6]: flujo[6] >= -0.857365
 fmax-[7]: flujo[7] >= -0.857365
 fmax-[8]: flujo[8] >= -0.857365
 fmax-[9]: flujo[9] >= -2.324412
 fmax-[10]: flujo[10] >= -2.324412
 fmax-[11]: flujo[11] >= -2.324412
 fmax-[12]: flujo[12] >= -2.324412
 fmax-[13]: flujo[13] >= -2.324412
 fmax-[14]: flujo[14] >= -0.857365
 fmax-[15]: flujo[15] >= -0.857365
Bounds
 flujo[0] free
 flujo[1] free
 flujo[2] free
 flujo[3] free
 flujo[4] free
 flujo[5] free
 flujo[6] free
 flujo[7] free
 flujo[8] free
 flujo[9] free
 flujo[10] free
 flujo[11] free
 flujo[12] free
 flujo[13] free
 flujo[14] free
 flujo[15] free
 Constant = 1
End
